184 5
10 10 10 10 10 

0 0 0 0 0 0 1 2 
0 0 0 0 0 0 2 3 5 
1 0 0 0 1 0 1 4 
3 0 0 0 2 0 2 9 6 
1 0 0 0 2 0 2 9 8 
3 0 0 0 2 0 1 7 
4 0 0 0 3 0 1 8 
10 0 0 0 3 0 2 12 10 
3 0 0 0 3 0 2 12 10 
8 0 0 0 4 0 1 11 
9 0 0 0 2 0 1 13 
4 0 0 0 3 0 1 13 
0 0 0 0 0 0 1 14 
0 0 0 0 0 0 1 15 
4 0 1 0 0 0 2 21 16 
9 0 2 0 0 0 2 24 17 
8 0 5 0 0 0 1 18 
8 0 3 0 0 0 2 23 19 
3 0 1 0 0 0 1 20 
1 0 4 0 0 0 1 22 
7 0 1 0 0 0 1 23 
6 0 4 0 0 0 1 25 
9 0 2 0 0 0 1 25 
9 0 2 0 0 0 1 25 
0 0 0 0 0 0 3 26 38 50 
0 0 0 0 0 0 1 27 
4 0 1 0 0 0 1 28 
10 0 4 0 0 0 2 31 29 
3 0 2 0 0 0 2 30 115 
2 0 3 0 0 0 1 32 
7 0 2 0 0 0 1 32 
2 0 2 0 0 0 2 34 33 
7 0 4 0 0 0 2 36 35 
1 0 3 0 0 0 1 35 
5 0 2 0 0 0 1 37 
3 0 2 0 0 0 1 37 
0 0 0 0 0 0 1 62 
0 0 0 0 0 0 3 39 40 56 
5 0 0 0 1 0 2 44 41 
9 0 0 0 3 0 2 44 43 
10 0 0 0 1 0 1 42 
7 0 0 0 3 0 1 43 
1 0 0 0 2 0 2 47 45 
1 0 0 0 3 0 1 45 
8 0 0 0 1 0 1 46 
1 0 0 0 5 0 1 48 
6 0 0 0 2 0 1 48 
2 0 0 0 4 0 1 49 
0 0 0 0 0 0 1 62 
0 0 0 0 0 0 2 51 52 
6 1 0 0 0 0 3 59 57 54 
5 4 0 0 0 0 1 53 
1 4 0 0 0 0 3 57 54 73 
10 2 0 0 0 0 1 55 
8 2 0 0 0 0 1 56 
8 4 0 0 0 0 1 58 
5 1 0 0 0 0 1 58 
1 2 0 0 0 0 1 60 
9 3 0 0 0 0 1 60 
10 2 0 0 0 0 1 61 
0 0 0 0 0 0 1 62 
0 0 0 0 0 0 5 63 75 87 99 111 
0 0 0 0 0 0 4 64 71 72 73 
7 0 0 0 0 1 1 65 
6 0 0 0 0 1 1 66 
4 0 0 0 0 2 1 67 
10 0 0 0 0 2 2 68 112 
5 0 0 0 0 4 1 69 
9 0 0 0 0 3 1 70 
5 0 0 0 0 3 1 74 
7 0 0 0 0 5 1 74 
7 0 0 0 0 2 1 74 
8 0 0 0 0 2 1 74 
0 0 0 0 0 0 1 123 
0 0 0 0 0 0 2 76 81 
7 0 0 0 0 1 1 77 
3 0 0 0 0 2 1 78 
1 0 0 0 0 1 2 80 79 
4 0 0 0 0 4 1 82 
6 0 0 0 0 3 1 82 
5 0 0 0 0 2 2 82 88 
1 0 0 0 0 5 1 83 
2 0 0 0 0 3 2 85 84 
4 0 0 0 0 3 1 86 
6 0 0 0 0 1 1 86 
0 0 0 0 0 0 1 123 
0 0 0 0 0 0 2 88 89 
7 0 0 0 1 0 3 91 90 114 
4 0 0 0 2 0 1 90 
9 0 0 0 4 0 2 95 92 
10 0 0 0 2 0 2 95 92 
2 0 0 0 1 0 1 93 
6 0 0 0 5 0 1 94 
10 0 0 0 3 0 1 96 
7 0 0 0 1 0 1 96 
10 0 0 0 3 0 1 97 
3 0 0 0 3 0 1 98 
0 0 0 0 0 0 1 123 
0 0 0 0 0 0 1 100 
6 0 0 0 1 0 1 101 
2 0 0 0 5 0 3 109 106 102 
10 0 0 0 1 0 1 103 
7 0 0 0 4 0 2 108 104 
4 0 0 0 2 0 1 105 
10 0 0 0 3 0 1 107 
4 0 0 0 1 0 1 107 
4 0 0 0 2 0 1 110 
1 0 0 0 3 0 1 110 
7 0 0 0 3 0 1 110 
0 0 0 0 0 0 1 123 
0 0 0 0 0 0 2 112 115 
7 0 0 0 1 0 2 117 113 
5 0 0 0 3 0 1 114 
10 0 0 0 4 0 2 118 116 
3 0 0 0 3 0 1 117 
4 0 0 0 4 0 1 119 
4 0 0 0 4 0 1 118 
6 0 0 0 1 0 1 120 
5 0 0 0 1 0 1 120 
9 0 0 0 2 0 1 121 
9 0 0 0 2 0 1 122 
0 0 0 0 0 0 1 123 
0 0 0 0 0 0 5 124 136 148 160 172 
0 0 0 0 0 0 4 125 127 128 129 
1 1 0 0 0 0 1 126 
9 1 0 0 0 0 1 130 
8 3 0 0 0 0 1 130 
4 1 0 0 0 0 1 130 
2 3 0 0 0 0 1 130 
4 3 0 0 0 0 1 131 
2 1 0 0 0 0 1 132 
2 5 0 0 0 0 1 133 
3 3 0 0 0 0 1 134 
7 4 0 0 0 0 1 135 
0 0 0 0 0 0 1 184 
0 0 0 0 0 0 4 137 139 141 143 
6 1 0 0 0 0 1 138 
6 1 0 0 0 0 1 140 
3 3 0 0 0 0 1 140 
9 2 0 0 0 0 1 142 
2 2 0 0 0 0 1 142 
7 3 0 0 0 0 1 144 
3 6 0 0 0 0 1 144 
9 1 0 0 0 0 1 145 
4 3 0 0 0 0 1 146 
7 3 0 0 0 0 1 147 
0 0 0 0 0 0 1 184 
0 0 0 0 0 0 4 149 150 157 158 
1 0 0 0 0 1 1 151 
1 0 0 0 0 4 1 151 
9 0 0 0 0 2 1 152 
1 0 0 0 0 2 1 153 
5 0 0 0 0 2 1 154 
10 0 0 0 0 2 1 155 
1 0 0 0 0 1 1 156 
3 0 0 0 0 4 1 159 
1 0 0 0 0 3 1 159 
4 0 0 0 0 4 1 159 
0 0 0 0 0 0 1 184 
0 0 0 0 0 0 2 161 164 
3 0 0 0 1 0 1 162 
1 0 0 0 2 0 1 163 
2 0 0 0 3 0 2 166 165 
6 0 0 0 1 0 1 165 
9 0 0 0 3 0 1 167 
6 0 0 0 2 0 1 168 
8 0 0 0 5 0 1 169 
4 0 0 0 3 0 1 169 
3 0 0 0 4 0 1 170 
3 0 0 0 1 0 1 171 
0 0 0 0 0 0 1 184 
0 0 0 0 0 0 2 173 176 
2 0 1 0 0 0 2 182 174 
5 0 1 0 0 0 1 175 
3 0 3 0 0 0 2 181 177 
3 0 2 0 0 0 3 182 181 180 
8 0 1 0 0 0 1 178 
4 0 4 0 0 0 1 179 
6 0 5 0 0 0 1 180 
8 0 3 0 0 0 1 183 
6 0 3 0 0 0 1 183 
8 0 2 0 0 0 1 183 
0 0 0 0 0 0 1 184 
0 0 0 0 0 0 0 
